evm/ejemplos_dzn/ejemplo_ac_sencillo.dzn
TERM = { '.', s0, s1, s2, s3, s4};
null = '.';
s = 4;
n = 5;
min = 2;
N0 = 0;
ZEROARYOP = {};
zeroout = [];
zerogas = [];
zerosz =  [];
zerolb =  [];
zeroub =  [];
N1 = 0;
UNARYOP = {};
unin =  [];
unout = [];
ungas = [];
unsz =  [];
unlb =  [];
unub =  [];
N2 = 0;
BINARYOP = {};
binin1 =  [];
binin2 =  [];
binout = [];
bincomm = [];
bingas = [];
binsz =  [];
binlb =  [];
binub =  [];
NA = 1;
ASSOCIATIVEADDOP = { ADD_0 };
naddin = [3 ];
addin = [| s1, s2, s0, null, null, null, null, null, null, null|];
addout = [s3 ];
addcomm = [true ];
addgas = [3 ];
addsz = [1 ];
addlb = [ 1 ];
addub = [ 4 ];
NPUSH = 0;
PUSHOP = {};
pushout = [];
pushgas = [];
pushsz =  [];
pushlb =  [];
pushub =  [];
NSTORE = 0;
STOROP = {};
storin1 =  [];
storin2 =  [];
storlb =  [];
storub =  [];
storgas = [];
storsz = [];
DUP_ENUM = { DUP1, DUP2, DUP3, DUP4};
SWAP_ENUM = { SWAP1, SWAP2, SWAP3, SWAP4};
startstack = [ s0, s1, s2, null, null ];
endstack = [ s3, null, null, null, null ];
m_dep_n = 0;
memory_dependences = [| |];
s_dep_n = 0;
store_dependences = [| |];
lib = false;
nlib = 0;
lib_elem = [| |];
lib_dis = [];
